NAME: test80
TYPE: TSP
DIMENSION: 15
EDGE_WEIGHT_TYPE: EUC_2D
NODE_COORD_SECTION
1 84.38277530563555 48.84019692091669
2 0.49444515701029257 29.156213274116695
3 2.0903855167061614 38.70496945573635
4 42.87344276935926 91.33235320058917
5 23.18229276770678 19.153412740705
6 35.55653108719541 87.17708423017743
7 9.335931680430088 94.11310303038773
8 72.4201708360758 90.5335413489435
9 11.618993746143747 36.4041776759666
10 52.0660048814357 35.53255898711851
11 96.9582982456317 92.73962392044541
12 86.01879947198942 92.02454131887232
13 8.925916379154286 34.119319733392516
14 6.675697698998196 15.940921924249219
15 57.764334804975405 67.89849974261386
EOF
